clingo version 5.4.0
Reading from Orario-Lezioni.cl
Solving...
Answer: 1
lezionetoExcel(1,venerdi,9,10,profPresentazione,presentazione) lezionetoExcel(3,venerdi,9,10,muzzetto,project_management) lezionetoExcel(2,sabato,9,10,muzzetto,project_management) lezionetoExcel(3,sabato,9,10,muzzetto,project_management) lezionetoExcel(6,venerdi,9,10,pozzato,fondamenti_di_ict_e_Paradigmi_di_programmazione) lezionetoExcel(7,lunedi,9,10,gena,linguaggi_di_markup) lezionetoExcel(7,martedi,9,10,gena,linguaggi_di_markup) lezionetoExcel(11,sabato,9,10,gena,linguaggi_di_markup) lezionetoExcel(16,lunedi,9,10,micalizio,ambienti_di_sviluppo_e_linguaggi_client_side_per_il_web) lezionetoExcel(16,venerdi,9,10,micalizio,ambienti_di_sviluppo_e_linguaggi_client_side_per_il_web) lezionetoExcel(13,sabato,9,10,micalizio,ambienti_di_sviluppo_e_linguaggi_client_side_per_il_web) lezionetoExcel(9,venerdi,9,10,mazzei,progettazione_di_basi_di_dati) lezionetoExcel(8,sabato,9,10,mazzei,progettazione_di_basi_di_dati) lezionetoExcel(14,venerdi,9,10,giordani,strumenti_e_metodi_di_interazione_nei_social_media) lezionetoExcel(15,venerdi,9,10,giordani,strumenti_e_metodi_di_interazione_nei_social_media) lezionetoExcel(14,sabato,9,10,giordani,strumenti_e_metodi_di_interazione_nei_social_media) lezionetoExcel(2,venerdi,9,10,zanchetta,acquisizione_ed_elaborazione_di_immagini_statiche_grafica) lezionetoExcel(1,sabato,9,10,zanchetta,acquisizione_ed_elaborazione_di_immagini_statiche_grafica) lezionetoExcel(5,sabato,9,10,gena,accessibilita_e_usabilita_nella_progettazione_multimediale) lezionetoExcel(5,venerdi,9,10,vargiu,elementi_di_fotografia_digitale) lezionetoExcel(9,sabato,9,10,vargiu,elementi_di_fotografia_digitale) lezionetoExcel(12,venerdi,9,10,boniolo,risorse_digitali_per_il_progetto_collaborazione_e_documentazione) lezionetoExcel(15,sabato,9,10,zanchetta,tecniche_e_strumenti_di_marketing_digitale) lezionetoExcel(16,sabato,9,10,suppini,introduzione_al_social_media_management) lezionetoExcel(19,sabato,9,10,valle,acquisizione_ed_elaborazione_del_suono) lezionetoExcel(18,venerdi,9,10,ghidelli,acquisizione_ed_elaborazione_di_sequenze_di_immagini_digitali) lezionetoExcel(20,venerdi,9,10,ghidelli,acquisizione_ed_elaborazione_di_sequenze_di_immagini_digitali) lezionetoExcel(21,venerdi,9,10,ghidelli,acquisizione_ed_elaborazione_di_sequenze_di_immagini_digitali) lezionetoExcel(20,sabato,9,10,ghidelli,acquisizione_ed_elaborazione_di_sequenze_di_immagini_digitali) lezionetoExcel(4,venerdi,9,10,gabardi,comunicazione_pubblicitaria_e_comunicazione_pubblica) lezionetoExcel(10,venerdi,9,10,gabardi,comunicazione_pubblicitaria_e_comunicazione_pubblica) lezionetoExcel(10,sabato,9,10,gabardi,comunicazione_pubblicitaria_e_comunicazione_pubblica) lezionetoExcel(19,venerdi,9,10,santangelo,semiologia_e_multimedialita) lezionetoExcel(16,martedi,9,10,taddeo,crossmedia_articolazione_delle_scritture_multimediali) lezionetoExcel(16,mercoledi,9,10,taddeo,crossmedia_articolazione_delle_scritture_multimediali) lezionetoExcel(16,giovedi,9,10,taddeo,crossmedia_articolazione_delle_scritture_multimediali) lezionetoExcel(17,sabato,9,10,taddeo,crossmedia_articolazione_delle_scritture_multimediali) lezionetoExcel(7,mercoledi,9,10,gribaudo,grafica_3d) lezionetoExcel(7,venerdi,9,10,gribaudo,grafica_3d) lezionetoExcel(8,venerdi,9,10,gribaudo,grafica_3d) lezionetoExcel(11,venerdi,9,10,gribaudo,grafica_3d) lezionetoExcel(6,sabato,9,10,gribaudo,grafica_3d) lezionetoExcel(22,venerdi,9,10,pozzato,progettazione_e_sviluppo_di_applicazioni_web_su_dispositivi_mobile_i) lezionetoExcel(23,venerdi,9,10,pozzato,progettazione_e_sviluppo_di_applicazioni_web_su_dispositivi_mobile_i) lezionetoExcel(24,venerdi,9,10,schifanella,progettazione_e_sviluppo_di_applicazioni_web_su_dispositivi_mobile_ii) lezionetoExcel(23,sabato,9,10,schifanella,progettazione_e_sviluppo_di_applicazioni_web_su_dispositivi_mobile_ii) lezionetoExcel(24,sabato,9,10,schifanella,progettazione_e_sviluppo_di_applicazioni_web_su_dispositivi_mobile_ii) lezionetoExcel(7,giovedi,9,10,lombardo,la_gestione_delle_risorse_umane) lezionetoExcel(13,venerdi,9,10,lombardo,la_gestione_delle_risorse_umane) lezionetoExcel(7,sabato,9,10,lombardo,la_gestione_delle_risorse_umane) lezionetoExcel(17,venerdi,9,10,travostino,i_vincoli_giuridici_del_progetto_diritto_dei_media) lezionetoExcel(18,sabato,9,10,travostino,i_vincoli_giuridici_del_progetto_diritto_dei_media) lezionetoExcel(1,venerdi,10,11,profPresentazione,presentazione) lezionetoExcel(19,venerdi,10,11,nonDefinito,blocco_libero) lezionetoExcel(3,venerdi,10,11,muzzetto,project_management) lezionetoExcel(7,martedi,10,11,pozzato,fondamenti_di_ict_e_Paradigmi_di_programmazione) lezionetoExcel(5,venerdi,10,11,pozzato,fondamenti_di_ict_e_Paradigmi_di_programmazione) lezionetoExcel(7,lunedi,10,11,gena,linguaggi_di_markup) lezionetoExcel(7,mercoledi,10,11,tomatis,la_gestione_della_qualita) lezionetoExcel(16,lunedi,10,11,micalizio,ambienti_di_sviluppo_e_linguaggi_client_side_per_il_web) lezionetoExcel(15,venerdi,10,11,micalizio,ambienti_di_sviluppo_e_linguaggi_client_side_per_il_web) lezionetoExcel(18,venerdi,10,11,terranova,progettazione_grafica_e_design_di_interfacce) lezionetoExcel(14,venerdi,10,11,giordani,strumenti_e_metodi_di_interazione_nei_social_media) lezionetoExcel(2,venerdi,10,11,zanchetta,acquisizione_ed_elaborazione_di_immagini_statiche_grafica) lezionetoExcel(7,giovedi,10,11,gena,accessibilita_e_usabilita_nella_progettazione_multimediale) lezionetoExcel(6,venerdi,10,11,gena,accessibilita_e_usabilita_nella_progettazione_multimediale) lezionetoExcel(7,venerdi,10,11,boniolo,risorse_digitali_per_il_progetto_collaborazione_e_documentazione) lezionetoExcel(10,venerdi,10,11,boniolo,risorse_digitali_per_il_progetto_collaborazione_e_documentazione) lezionetoExcel(12,venerdi,10,11,boniolo,risorse_digitali_per_il_progetto_collaborazione_e_documentazione) lezionetoExcel(24,venerdi,10,11,damiano,tecnologie_server_side_per_il_web) lezionetoExcel(17,venerdi,10,11,zanchetta,tecniche_e_strumenti_di_marketing_digitale) lezionetoExcel(16,martedi,10,11,suppini,introduzione_al_social_media_management) lezionetoExcel(16,venerdi,10,11,suppini,introduzione_al_social_media_management) lezionetoExcel(21,venerdi,10,11,valle,acquisizione_ed_elaborazione_del_suono) lezionetoExcel(20,venerdi,10,11,ghidelli,acquisizione_ed_elaborazione_di_sequenze_di_immagini_digitali) lezionetoExcel(4,venerdi,10,11,gabardi,comunicazione_pubblicitaria_e_comunicazione_pubblica) lezionetoExcel(9,venerdi,10,11,gabardi,comunicazione_pubblicitaria_e_comunicazione_pubblica) lezionetoExcel(13,venerdi,10,11,santangelo,semiologia_e_multimedialita) lezionetoExcel(16,mercoledi,10,11,taddeo,crossmedia_articolazione_delle_scritture_multimediali) lezionetoExcel(16,giovedi,10,11,taddeo,crossmedia_articolazione_delle_scritture_multimediali) lezionetoExcel(8,venerdi,10,11,gribaudo,grafica_3d) lezionetoExcel(11,venerdi,10,11,gribaudo,grafica_3d) lezionetoExcel(22,venerdi,10,11,pozzato,progettazione_e_sviluppo_di_applicazioni_web_su_dispositivi_mobile_i) lezionetoExcel(23,venerdi,10,11,pozzato,progettazione_e_sviluppo_di_applicazioni_web_su_dispositivi_mobile_i) lezionetoExcel(19,venerdi,11,12,nonDefinito,blocco_libero) lezionetoExcel(2,venerdi,11,12,pozzato,fondamenti_di_ict_e_Paradigmi_di_programmazione) lezionetoExcel(5,venerdi,11,12,pozzato,fondamenti_di_ict_e_Paradigmi_di_programmazione) lezionetoExcel(11,venerdi,11,12,gena,linguaggi_di_markup) lezionetoExcel(12,venerdi,11,12,gena,linguaggi_di_markup) lezionetoExcel(8,venerdi,11,12,tomatis,la_gestione_della_qualita) lezionetoExcel(17,venerdi,11,12,terranova,progettazione_grafica_e_design_di_interfacce) lezionetoExcel(7,lunedi,11,12,mazzei,progettazione_di_basi_di_dati) lezionetoExcel(3,venerdi,11,12,mazzei,progettazione_di_basi_di_dati) lezionetoExcel(9,venerdi,11,12,mazzei,progettazione_di_basi_di_dati) lezionetoExcel(14,venerdi,11,12,giordani,strumenti_e_metodi_di_interazione_nei_social_media) lezionetoExcel(1,venerdi,11,12,zanchetta,acquisizione_ed_elaborazione_di_immagini_statiche_grafica) lezionetoExcel(7,giovedi,11,12,gena,accessibilita_e_usabilita_nella_progettazione_multimediale) lezionetoExcel(22,venerdi,11,12,damiano,tecnologie_server_side_per_il_web) lezionetoExcel(21,venerdi,11,12,zanchetta,tecniche_e_strumenti_di_marketing_digitale) lezionetoExcel(16,lunedi,11,12,suppini,introduzione_al_social_media_management) lezionetoExcel(16,venerdi,11,12,suppini,introduzione_al_social_media_management) lezionetoExcel(23,venerdi,11,12,valle,acquisizione_ed_elaborazione_del_suono) lezionetoExcel(18,venerdi,11,12,ghidelli,acquisizione_ed_elaborazione_di_sequenze_di_immagini_digitali) lezionetoExcel(20,venerdi,11,12,ghidelli,acquisizione_ed_elaborazione_di_sequenze_di_immagini_digitali) lezionetoExcel(4,venerdi,11,12,gabardi,comunicazione_pubblicitaria_e_comunicazione_pubblica) lezionetoExcel(16,martedi,11,12,taddeo,crossmedia_articolazione_delle_scritture_multimediali) lezionetoExcel(16,mercoledi,11,12,taddeo,crossmedia_articolazione_delle_scritture_multimediali) lezionetoExcel(16,giovedi,11,12,taddeo,crossmedia_articolazione_delle_scritture_multimediali) lezionetoExcel(7,martedi,11,12,gribaudo,grafica_3d) lezionetoExcel(7,mercoledi,11,12,gribaudo,grafica_3d) lezionetoExcel(6,venerdi,11,12,gribaudo,grafica_3d) lezionetoExcel(7,venerdi,11,12,gribaudo,grafica_3d) lezionetoExcel(24,venerdi,11,12,schifanella,progettazione_e_sviluppo_di_applicazioni_web_su_dispositivi_mobile_ii) lezionetoExcel(10,venerdi,11,12,lombardo,la_gestione_delle_risorse_umane) lezionetoExcel(13,venerdi,11,12,travostino,i_vincoli_giuridici_del_progetto_diritto_dei_media) lezionetoExcel(15,venerdi,11,12,travostino,i_vincoli_giuridici_del_progetto_diritto_dei_media) lezionetoExcel(7,mercoledi,12,13,muzzetto,project_management) lezionetoExcel(1,venerdi,12,13,muzzetto,project_management) lezionetoExcel(3,venerdi,12,13,muzzetto,project_management) lezionetoExcel(7,venerdi,12,13,muzzetto,project_management) lezionetoExcel(2,venerdi,12,13,pozzato,fondamenti_di_ict_e_Paradigmi_di_programmazione) lezionetoExcel(4,sabato,12,13,pozzato,fondamenti_di_ict_e_Paradigmi_di_programmazione) lezionetoExcel(7,martedi,12,13,gena,linguaggi_di_markup) lezionetoExcel(12,venerdi,12,13,gena,linguaggi_di_markup) lezionetoExcel(11,sabato,12,13,gena,linguaggi_di_markup) lezionetoExcel(8,venerdi,12,13,tomatis,la_gestione_della_qualita) lezionetoExcel(7,sabato,12,13,tomatis,la_gestione_della_qualita) lezionetoExcel(16,martedi,12,13,micalizio,ambienti_di_sviluppo_e_linguaggi_client_side_per_il_web) lezionetoExcel(16,giovedi,12,13,micalizio,ambienti_di_sviluppo_e_linguaggi_client_side_per_il_web) lezionetoExcel(15,venerdi,12,13,micalizio,ambienti_di_sviluppo_e_linguaggi_client_side_per_il_web) lezionetoExcel(18,venerdi,12,13,terranova,progettazione_grafica_e_design_di_interfacce) lezionetoExcel(19,sabato,12,13,terranova,progettazione_grafica_e_design_di_interfacce) lezionetoExcel(7,giovedi,12,13,mazzei,progettazione_di_basi_di_dati) lezionetoExcel(4,venerdi,12,13,mazzei,progettazione_di_basi_di_dati) lezionetoExcel(3,sabato,12,13,mazzei,progettazione_di_basi_di_dati) lezionetoExcel(8,sabato,12,13,mazzei,progettazione_di_basi_di_dati) lezionetoExcel(14,sabato,12,13,giordani,strumenti_e_metodi_di_interazione_nei_social_media) lezionetoExcel(1,sabato,12,13,zanchetta,acquisizione_ed_elaborazione_di_immagini_statiche_grafica) lezionetoExcel(6,venerdi,12,13,gena,accessibilita_e_usabilita_nella_progettazione_multimediale) lezionetoExcel(2,sabato,12,13,gena,accessibilita_e_usabilita_nella_progettazione_multimediale) lezionetoExcel(6,sabato,12,13,gena,accessibilita_e_usabilita_nella_progettazione_multimediale) lezionetoExcel(14,venerdi,12,13,muzzetto,marketing_digitale) lezionetoExcel(12,sabato,12,13,muzzetto,marketing_digitale) lezionetoExcel(5,venerdi,12,13,vargiu,elementi_di_fotografia_digitale) lezionetoExcel(10,venerdi,12,13,boniolo,risorse_digitali_per_il_progetto_collaborazione_e_documentazione) lezionetoExcel(11,venerdi,12,13,boniolo,risorse_digitali_per_il_progetto_collaborazione_e_documentazione) lezionetoExcel(23,venerdi,12,13,damiano,tecnologie_server_side_per_il_web) lezionetoExcel(24,venerdi,12,13,damiano,tecnologie_server_side_per_il_web) lezionetoExcel(23,sabato,12,13,damiano,tecnologie_server_side_per_il_web) lezionetoExcel(24,sabato,12,13,damiano,tecnologie_server_side_per_il_web) lezionetoExcel(17,venerdi,12,13,zanchetta,tecniche_e_strumenti_di_marketing_digitale) lezionetoExcel(21,venerdi,12,13,zanchetta,tecniche_e_strumenti_di_marketing_digitale) lezionetoExcel(15,sabato,12,13,zanchetta,tecniche_e_strumenti_di_marketing_digitale) lezionetoExcel(16,venerdi,12,13,suppini,introduzione_al_social_media_management) lezionetoExcel(22,venerdi,12,13,suppini,introduzione_al_social_media_management) lezionetoExcel(16,sabato,12,13,suppini,introduzione_al_social_media_management) lezionetoExcel(21,sabato,12,13,valle,acquisizione_ed_elaborazione_del_suono) lezionetoExcel(19,venerdi,12,13,ghidelli,acquisizione_ed_elaborazione_di_sequenze_di_immagini_digitali) lezionetoExcel(20,venerdi,12,13,ghidelli,acquisizione_ed_elaborazione_di_sequenze_di_immagini_digitali) lezionetoExcel(18,sabato,12,13,ghidelli,acquisizione_ed_elaborazione_di_sequenze_di_immagini_digitali) lezionetoExcel(9,venerdi,12,13,gabardi,comunicazione_pubblicitaria_e_comunicazione_pubblica) lezionetoExcel(10,sabato,12,13,gabardi,comunicazione_pubblicitaria_e_comunicazione_pubblica) lezionetoExcel(13,venerdi,12,13,santangelo,semiologia_e_multimedialita) lezionetoExcel(13,sabato,12,13,santangelo,semiologia_e_multimedialita) lezionetoExcel(17,sabato,12,13,santangelo,semiologia_e_multimedialita) lezionetoExcel(16,lunedi,12,13,taddeo,crossmedia_articolazione_delle_scritture_multimediali) lezionetoExcel(16,mercoledi,12,13,taddeo,crossmedia_articolazione_delle_scritture_multimediali) lezionetoExcel(20,sabato,12,13,taddeo,crossmedia_articolazione_delle_scritture_multimediali) lezionetoExcel(22,sabato,12,13,pozzato,progettazione_e_sviluppo_di_applicazioni_web_su_dispositivi_mobile_i) lezionetoExcel(7,lunedi,12,13,lombardo,la_gestione_delle_risorse_umane) lezionetoExcel(3,venerdi,14,15,muzzetto,project_management) lezionetoExcel(7,martedi,14,15,gena,linguaggi_di_markup) lezionetoExcel(6,venerdi,14,15,gena,linguaggi_di_markup) lezionetoExcel(9,venerdi,14,15,gena,linguaggi_di_markup) lezionetoExcel(11,sabato,14,15,gena,linguaggi_di_markup) lezionetoExcel(8,venerdi,14,15,tomatis,la_gestione_della_qualita) lezionetoExcel(7,sabato,14,15,tomatis,la_gestione_della_qualita) lezionetoExcel(16,martedi,14,15,micalizio,ambienti_di_sviluppo_e_linguaggi_client_side_per_il_web) lezionetoExcel(16,mercoledi,14,15,micalizio,ambienti_di_sviluppo_e_linguaggi_client_side_per_il_web) lezionetoExcel(16,giovedi,14,15,micalizio,ambienti_di_sviluppo_e_linguaggi_client_side_per_il_web) lezionetoExcel(12,sabato,14,15,micalizio,ambienti_di_sviluppo_e_linguaggi_client_side_per_il_web) lezionetoExcel(18,venerdi,14,15,terranova,progettazione_grafica_e_design_di_interfacce) lezionetoExcel(7,lunedi,14,15,mazzei,progettazione_di_basi_di_dati) lezionetoExcel(4,venerdi,14,15,mazzei,progettazione_di_basi_di_dati) lezionetoExcel(3,sabato,14,15,mazzei,progettazione_di_basi_di_dati) lezionetoExcel(8,sabato,14,15,mazzei,progettazione_di_basi_di_dati) lezionetoExcel(12,venerdi,14,15,giordani,strumenti_e_metodi_di_interazione_nei_social_media) lezionetoExcel(15,venerdi,14,15,giordani,strumenti_e_metodi_di_interazione_nei_social_media) lezionetoExcel(14,sabato,14,15,giordani,strumenti_e_metodi_di_interazione_nei_social_media) lezionetoExcel(2,venerdi,14,15,zanchetta,acquisizione_ed_elaborazione_di_immagini_statiche_grafica) lezionetoExcel(1,sabato,14,15,zanchetta,acquisizione_ed_elaborazione_di_immagini_statiche_grafica) lezionetoExcel(4,sabato,14,15,zanchetta,acquisizione_ed_elaborazione_di_immagini_statiche_grafica) lezionetoExcel(1,venerdi,14,15,gena,accessibilita_e_usabilita_nella_progettazione_multimediale) lezionetoExcel(5,venerdi,14,15,gena,accessibilita_e_usabilita_nella_progettazione_multimediale) lezionetoExcel(2,sabato,14,15,gena,accessibilita_e_usabilita_nella_progettazione_multimediale) lezionetoExcel(5,sabato,14,15,gena,accessibilita_e_usabilita_nella_progettazione_multimediale) lezionetoExcel(14,venerdi,14,15,muzzetto,marketing_digitale) lezionetoExcel(7,venerdi,14,15,boniolo,risorse_digitali_per_il_progetto_collaborazione_e_documentazione) lezionetoExcel(11,venerdi,14,15,boniolo,risorse_digitali_per_il_progetto_collaborazione_e_documentazione) lezionetoExcel(20,venerdi,14,15,damiano,tecnologie_server_side_per_il_web) lezionetoExcel(24,venerdi,14,15,damiano,tecnologie_server_side_per_il_web) lezionetoExcel(23,sabato,14,15,damiano,tecnologie_server_side_per_il_web) lezionetoExcel(15,sabato,14,15,zanchetta,tecniche_e_strumenti_di_marketing_digitale) lezionetoExcel(16,sabato,14,15,suppini,introduzione_al_social_media_management) lezionetoExcel(21,venerdi,14,15,valle,acquisizione_ed_elaborazione_del_suono) lezionetoExcel(23,venerdi,14,15,valle,acquisizione_ed_elaborazione_del_suono) lezionetoExcel(21,sabato,14,15,valle,acquisizione_ed_elaborazione_del_suono) lezionetoExcel(19,venerdi,14,15,ghidelli,acquisizione_ed_elaborazione_di_sequenze_di_immagini_digitali) lezionetoExcel(20,sabato,14,15,ghidelli,acquisizione_ed_elaborazione_di_sequenze_di_immagini_digitali) lezionetoExcel(9,sabato,14,15,gabardi,comunicazione_pubblicitaria_e_comunicazione_pubblica) lezionetoExcel(10,sabato,14,15,gabardi,comunicazione_pubblicitaria_e_comunicazione_pubblica) lezionetoExcel(16,venerdi,14,15,santangelo,semiologia_e_multimedialita) lezionetoExcel(13,sabato,14,15,santangelo,semiologia_e_multimedialita) lezionetoExcel(17,sabato,14,15,santangelo,semiologia_e_multimedialita) lezionetoExcel(16,lunedi,14,15,taddeo,crossmedia_articolazione_delle_scritture_multimediali) lezionetoExcel(7,mercoledi,14,15,gribaudo,grafica_3d) lezionetoExcel(6,sabato,14,15,gribaudo,grafica_3d) lezionetoExcel(22,venerdi,14,15,pozzato,progettazione_e_sviluppo_di_applicazioni_web_su_dispositivi_mobile_i) lezionetoExcel(22,sabato,14,15,pozzato,progettazione_e_sviluppo_di_applicazioni_web_su_dispositivi_mobile_i) lezionetoExcel(24,sabato,14,15,schifanella,progettazione_e_sviluppo_di_applicazioni_web_su_dispositivi_mobile_ii) lezionetoExcel(7,giovedi,14,15,lombardo,la_gestione_delle_risorse_umane) lezionetoExcel(10,venerdi,14,15,lombardo,la_gestione_delle_risorse_umane) lezionetoExcel(13,venerdi,14,15,lombardo,la_gestione_delle_risorse_umane) lezionetoExcel(17,venerdi,14,15,travostino,i_vincoli_giuridici_del_progetto_diritto_dei_media) lezionetoExcel(18,sabato,14,15,travostino,i_vincoli_giuridici_del_progetto_diritto_dei_media) lezionetoExcel(7,mercoledi,15,16,muzzetto,project_management) lezionetoExcel(3,sabato,15,16,muzzetto,project_management) lezionetoExcel(7,lunedi,15,16,pozzato,fondamenti_di_ict_e_Paradigmi_di_programmazione) lezionetoExcel(7,martedi,15,16,pozzato,fondamenti_di_ict_e_Paradigmi_di_programmazione) lezionetoExcel(2,venerdi,15,16,pozzato,fondamenti_di_ict_e_Paradigmi_di_programmazione) lezionetoExcel(6,venerdi,15,16,gena,linguaggi_di_markup) lezionetoExcel(9,venerdi,15,16,gena,linguaggi_di_markup) lezionetoExcel(11,venerdi,15,16,gena,linguaggi_di_markup) lezionetoExcel(5,sabato,15,16,tomatis,la_gestione_della_qualita) lezionetoExcel(7,sabato,15,16,tomatis,la_gestione_della_qualita) lezionetoExcel(16,mercoledi,15,16,micalizio,ambienti_di_sviluppo_e_linguaggi_client_side_per_il_web) lezionetoExcel(16,giovedi,15,16,micalizio,ambienti_di_sviluppo_e_linguaggi_client_side_per_il_web) lezionetoExcel(16,venerdi,15,16,micalizio,ambienti_di_sviluppo_e_linguaggi_client_side_per_il_web) lezionetoExcel(13,sabato,15,16,micalizio,ambienti_di_sviluppo_e_linguaggi_client_side_per_il_web) lezionetoExcel(17,venerdi,15,16,terranova,progettazione_grafica_e_design_di_interfacce) lezionetoExcel(18,venerdi,15,16,terranova,progettazione_grafica_e_design_di_interfacce) lezionetoExcel(16,sabato,15,16,terranova,progettazione_grafica_e_design_di_interfacce) lezionetoExcel(7,giovedi,15,16,mazzei,progettazione_di_basi_di_dati) lezionetoExcel(4,venerdi,15,16,mazzei,progettazione_di_basi_di_dati) lezionetoExcel(12,venerdi,15,16,giordani,strumenti_e_metodi_di_interazione_nei_social_media) lezionetoExcel(14,venerdi,15,16,giordani,strumenti_e_metodi_di_interazione_nei_social_media) lezionetoExcel(15,venerdi,15,16,giordani,strumenti_e_metodi_di_interazione_nei_social_media) lezionetoExcel(1,venerdi,15,16,zanchetta,acquisizione_ed_elaborazione_di_immagini_statiche_grafica) lezionetoExcel(3,venerdi,15,16,zanchetta,acquisizione_ed_elaborazione_di_immagini_statiche_grafica) lezionetoExcel(4,sabato,15,16,zanchetta,acquisizione_ed_elaborazione_di_immagini_statiche_grafica) lezionetoExcel(5,venerdi,15,16,gena,accessibilita_e_usabilita_nella_progettazione_multimediale) lezionetoExcel(6,sabato,15,16,gena,accessibilita_e_usabilita_nella_progettazione_multimediale) lezionetoExcel(8,sabato,15,16,muzzetto,marketing_digitale) lezionetoExcel(12,sabato,15,16,muzzetto,marketing_digitale) lezionetoExcel(7,venerdi,15,16,vargiu,elementi_di_fotografia_digitale) lezionetoExcel(9,sabato,15,16,vargiu,elementi_di_fotografia_digitale) lezionetoExcel(11,sabato,15,16,boniolo,risorse_digitali_per_il_progetto_collaborazione_e_documentazione) lezionetoExcel(20,venerdi,15,16,damiano,tecnologie_server_side_per_il_web) lezionetoExcel(23,venerdi,15,16,damiano,tecnologie_server_side_per_il_web) lezionetoExcel(22,sabato,15,16,damiano,tecnologie_server_side_per_il_web) lezionetoExcel(24,sabato,15,16,damiano,tecnologie_server_side_per_il_web) lezionetoExcel(16,martedi,15,16,suppini,introduzione_al_social_media_management) lezionetoExcel(21,venerdi,15,16,valle,acquisizione_ed_elaborazione_del_suono) lezionetoExcel(19,sabato,15,16,valle,acquisizione_ed_elaborazione_del_suono) lezionetoExcel(19,venerdi,15,16,ghidelli,acquisizione_ed_elaborazione_di_sequenze_di_immagini_digitali) lezionetoExcel(18,sabato,15,16,ghidelli,acquisizione_ed_elaborazione_di_sequenze_di_immagini_digitali) lezionetoExcel(10,venerdi,15,16,gabardi,comunicazione_pubblicitaria_e_comunicazione_pubblica) lezionetoExcel(16,lunedi,15,16,taddeo,crossmedia_articolazione_delle_scritture_multimediali) lezionetoExcel(17,sabato,15,16,taddeo,crossmedia_articolazione_delle_scritture_multimediali) lezionetoExcel(20,sabato,15,16,taddeo,crossmedia_articolazione_delle_scritture_multimediali) lezionetoExcel(8,venerdi,15,16,gribaudo,grafica_3d) lezionetoExcel(22,venerdi,15,16,pozzato,progettazione_e_sviluppo_di_applicazioni_web_su_dispositivi_mobile_i) lezionetoExcel(21,sabato,15,16,pozzato,progettazione_e_sviluppo_di_applicazioni_web_su_dispositivi_mobile_i) lezionetoExcel(24,venerdi,15,16,schifanella,progettazione_e_sviluppo_di_applicazioni_web_su_dispositivi_mobile_ii) lezionetoExcel(23,sabato,15,16,schifanella,progettazione_e_sviluppo_di_applicazioni_web_su_dispositivi_mobile_ii) lezionetoExcel(13,venerdi,15,16,travostino,i_vincoli_giuridici_del_progetto_diritto_dei_media) lezionetoExcel(16,mercoledi,16,17,nonDefinito,blocco_libero) lezionetoExcel(2,sabato,16,17,muzzetto,project_management) lezionetoExcel(6,venerdi,16,17,pozzato,fondamenti_di_ict_e_Paradigmi_di_programmazione) lezionetoExcel(4,sabato,16,17,pozzato,fondamenti_di_ict_e_Paradigmi_di_programmazione) lezionetoExcel(7,martedi,16,17,gena,linguaggi_di_markup) lezionetoExcel(11,venerdi,16,17,gena,linguaggi_di_markup) lezionetoExcel(12,venerdi,16,17,gena,linguaggi_di_markup) lezionetoExcel(7,mercoledi,16,17,tomatis,la_gestione_della_qualita) lezionetoExcel(5,sabato,16,17,tomatis,la_gestione_della_qualita) lezionetoExcel(12,sabato,16,17,micalizio,ambienti_di_sviluppo_e_linguaggi_client_side_per_il_web) lezionetoExcel(13,sabato,16,17,micalizio,ambienti_di_sviluppo_e_linguaggi_client_side_per_il_web) lezionetoExcel(16,sabato,16,17,terranova,progettazione_grafica_e_design_di_interfacce) lezionetoExcel(19,sabato,16,17,terranova,progettazione_grafica_e_design_di_interfacce) lezionetoExcel(9,venerdi,16,17,mazzei,progettazione_di_basi_di_dati) lezionetoExcel(3,sabato,16,17,mazzei,progettazione_di_basi_di_dati) lezionetoExcel(14,sabato,16,17,giordani,strumenti_e_metodi_di_interazione_nei_social_media) lezionetoExcel(2,venerdi,16,17,zanchetta,acquisizione_ed_elaborazione_di_immagini_statiche_grafica) lezionetoExcel(3,venerdi,16,17,zanchetta,acquisizione_ed_elaborazione_di_immagini_statiche_grafica) lezionetoExcel(1,sabato,16,17,zanchetta,acquisizione_ed_elaborazione_di_immagini_statiche_grafica) lezionetoExcel(1,venerdi,16,17,gena,accessibilita_e_usabilita_nella_progettazione_multimediale) lezionetoExcel(8,venerdi,16,17,muzzetto,marketing_digitale) lezionetoExcel(14,venerdi,16,17,muzzetto,marketing_digitale) lezionetoExcel(8,sabato,16,17,muzzetto,marketing_digitale) lezionetoExcel(5,venerdi,16,17,vargiu,elementi_di_fotografia_digitale) lezionetoExcel(7,venerdi,16,17,vargiu,elementi_di_fotografia_digitale) lezionetoExcel(10,venerdi,16,17,vargiu,elementi_di_fotografia_digitale) lezionetoExcel(11,sabato,16,17,boniolo,risorse_digitali_per_il_progetto_collaborazione_e_documentazione) lezionetoExcel(20,venerdi,16,17,damiano,tecnologie_server_side_per_il_web) lezionetoExcel(23,venerdi,16,17,damiano,tecnologie_server_side_per_il_web) lezionetoExcel(24,venerdi,16,17,damiano,tecnologie_server_side_per_il_web) lezionetoExcel(22,sabato,16,17,damiano,tecnologie_server_side_per_il_web) lezionetoExcel(17,venerdi,16,17,zanchetta,tecniche_e_strumenti_di_marketing_digitale) lezionetoExcel(15,sabato,16,17,zanchetta,tecniche_e_strumenti_di_marketing_digitale) lezionetoExcel(16,lunedi,16,17,suppini,introduzione_al_social_media_management) lezionetoExcel(16,venerdi,16,17,suppini,introduzione_al_social_media_management) lezionetoExcel(22,venerdi,16,17,suppini,introduzione_al_social_media_management) lezionetoExcel(18,venerdi,16,17,ghidelli,acquisizione_ed_elaborazione_di_sequenze_di_immagini_digitali) lezionetoExcel(21,venerdi,16,17,ghidelli,acquisizione_ed_elaborazione_di_sequenze_di_immagini_digitali) lezionetoExcel(18,sabato,16,17,ghidelli,acquisizione_ed_elaborazione_di_sequenze_di_immagini_digitali) lezionetoExcel(20,sabato,16,17,ghidelli,acquisizione_ed_elaborazione_di_sequenze_di_immagini_digitali) lezionetoExcel(4,venerdi,16,17,gabardi,comunicazione_pubblicitaria_e_comunicazione_pubblica) lezionetoExcel(9,sabato,16,17,gabardi,comunicazione_pubblicitaria_e_comunicazione_pubblica) lezionetoExcel(10,sabato,16,17,gabardi,comunicazione_pubblicitaria_e_comunicazione_pubblica) lezionetoExcel(19,venerdi,16,17,santangelo,semiologia_e_multimedialita) lezionetoExcel(16,martedi,16,17,taddeo,crossmedia_articolazione_delle_scritture_multimediali) lezionetoExcel(16,giovedi,16,17,taddeo,crossmedia_articolazione_delle_scritture_multimediali) lezionetoExcel(17,sabato,16,17,taddeo,crossmedia_articolazione_delle_scritture_multimediali) lezionetoExcel(7,giovedi,16,17,gribaudo,grafica_3d) lezionetoExcel(6,sabato,16,17,gribaudo,grafica_3d) lezionetoExcel(21,sabato,16,17,pozzato,progettazione_e_sviluppo_di_applicazioni_web_su_dispositivi_mobile_i) lezionetoExcel(23,sabato,16,17,schifanella,progettazione_e_sviluppo_di_applicazioni_web_su_dispositivi_mobile_ii) lezionetoExcel(24,sabato,16,17,schifanella,progettazione_e_sviluppo_di_applicazioni_web_su_dispositivi_mobile_ii) lezionetoExcel(7,lunedi,16,17,lombardo,la_gestione_delle_risorse_umane) lezionetoExcel(7,sabato,16,17,lombardo,la_gestione_delle_risorse_umane) lezionetoExcel(13,venerdi,16,17,travostino,i_vincoli_giuridici_del_progetto_diritto_dei_media) lezionetoExcel(15,venerdi,16,17,travostino,i_vincoli_giuridici_del_progetto_diritto_dei_media) lezionetoExcel(16,mercoledi,17,18,nonDefinito,blocco_libero) lezionetoExcel(1,venerdi,17,18,muzzetto,project_management) lezionetoExcel(7,venerdi,17,18,muzzetto,project_management) lezionetoExcel(7,lunedi,17,18,pozzato,fondamenti_di_ict_e_Paradigmi_di_programmazione) lezionetoExcel(2,venerdi,17,18,pozzato,fondamenti_di_ict_e_Paradigmi_di_programmazione) lezionetoExcel(11,venerdi,17,18,gena,linguaggi_di_markup) lezionetoExcel(16,giovedi,17,18,micalizio,ambienti_di_sviluppo_e_linguaggi_client_side_per_il_web) lezionetoExcel(15,venerdi,17,18,micalizio,ambienti_di_sviluppo_e_linguaggi_client_side_per_il_web) lezionetoExcel(3,venerdi,17,18,mazzei,progettazione_di_basi_di_dati) lezionetoExcel(4,venerdi,17,18,mazzei,progettazione_di_basi_di_dati) lezionetoExcel(9,venerdi,17,18,mazzei,progettazione_di_basi_di_dati) lezionetoExcel(12,venerdi,17,18,giordani,strumenti_e_metodi_di_interazione_nei_social_media) lezionetoExcel(8,venerdi,17,18,muzzetto,marketing_digitale) lezionetoExcel(14,venerdi,17,18,muzzetto,marketing_digitale) lezionetoExcel(5,venerdi,17,18,vargiu,elementi_di_fotografia_digitale) lezionetoExcel(10,venerdi,17,18,vargiu,elementi_di_fotografia_digitale) lezionetoExcel(20,venerdi,17,18,damiano,tecnologie_server_side_per_il_web) lezionetoExcel(22,venerdi,17,18,damiano,tecnologie_server_side_per_il_web) lezionetoExcel(23,venerdi,17,18,damiano,tecnologie_server_side_per_il_web) lezionetoExcel(17,venerdi,17,18,zanchetta,tecniche_e_strumenti_di_marketing_digitale) lezionetoExcel(16,martedi,17,18,suppini,introduzione_al_social_media_management) lezionetoExcel(21,venerdi,17,18,valle,acquisizione_ed_elaborazione_del_suono) lezionetoExcel(18,venerdi,17,18,ghidelli,acquisizione_ed_elaborazione_di_sequenze_di_immagini_digitali) lezionetoExcel(19,venerdi,17,18,ghidelli,acquisizione_ed_elaborazione_di_sequenze_di_immagini_digitali) lezionetoExcel(16,venerdi,17,18,santangelo,semiologia_e_multimedialita) lezionetoExcel(16,lunedi,17,18,taddeo,crossmedia_articolazione_delle_scritture_multimediali) lezionetoExcel(7,martedi,17,18,gribaudo,grafica_3d) lezionetoExcel(7,mercoledi,17,18,gribaudo,grafica_3d) lezionetoExcel(7,giovedi,17,18,gribaudo,grafica_3d) lezionetoExcel(6,venerdi,17,18,gribaudo,grafica_3d) lezionetoExcel(24,venerdi,17,18,schifanella,progettazione_e_sviluppo_di_applicazioni_web_su_dispositivi_mobile_ii) lezionetoExcel(13,venerdi,17,18,travostino,i_vincoli_giuridici_del_progetto_diritto_dei_media)
SATISFIABLE

Models       : 1+
Calls        : 1
Time         : 4868.801s (Solving: 4845.37s 1st Model: 4845.37s Unsat: 0.00s)
CPU Time     : 4858.761s
